# Solution for model GasLib-40
# Objective value = 5.5391691462183026e+01
loadshed[innode_1] 0
loadshed[innode_2] 0
loadshed[innode_3] 0
loadshed[innode_4] 0
loadshed[innode_5] 0
loadshed[innode_6] 0
loadshed[innode_7] 0
loadshed[innode_8] 0
loadshed[source_1] -7.1980311816644882e-02
loadshed[source_2] 8.5463443611231926e-02
loadshed[source_3] 3.3689699430044451e-01
loadshed[sink_1] 4.4653178426309537e-01
loadshed[sink_2] 0
loadshed[sink_3] 0
loadshed[sink_4] 0
loadshed[sink_5] 0
loadshed[sink_6] 0
loadshed[sink_7] 0
loadshed[sink_8] 0
loadshed[sink_9] 6.8722134080351882e-02
loadshed[sink_10] 0
loadshed[sink_11] 0
loadshed[sink_12] 1
loadshed[sink_13] 0
loadshed[sink_14] 0
loadshed[sink_15] 0
loadshed[sink_16] 0
loadshed[sink_17] 0
loadshed[sink_18] 0
loadshed[sink_19] 0
loadshed[sink_20] 0
loadshed[sink_21] 1
loadshed[sink_22] 0
loadshed[sink_23] 0
loadshed[sink_24] 8.7175396724226617e-01
loadshed[sink_25] 0
loadshed[sink_26] 0
loadshed[sink_27] 0
loadshed[sink_28] 0
loadshed[sink_29] 0
flow[source_1,sink_3] 1.6946966526740221e+02
flow[innode_1,sink_16] 1.6354166666666970e+01
flow[innode_6,sink_13] 9.6490283003454
flow[sink_13,sink_14] -6.7051383663212683e+00
flow[sink_14,sink_10] -2.3059305032987936e+01
flow[sink_25,sink_26] 1.1562105880332423e+02
flow[sink_26,sink_9] 0
flow[sink_9,sink_18] -1.5230273432227580e+01
flow[sink_26,sink_4] 9.9266892136657646e+01
flow[sink_4,sink_20] -4.1591416401159222e+01
flow[sink_18,sink_6] -3.1584440098894248e+01
flow[sink_25,innode_8] -1.3676133193406585e+02
flow[sink_6,sink_7] -73.3442848770915
flow[sink_6,sink_22] 2.5405678111530630e+01
flow[sink_7,sink_24] 2.0973569940587735e+00
flow[sink_22,sink_1] 9.0515114448639622e+00
flow[sink_24,sink_21] 0
flow[sink_21,sink_12] 0
flow[sink_7,sink_5] -9.1795808537816939e+01
flow[sink_5,sink_17] -1.0814997520448361e+02
flow[sink_17,sink_4] -1.2450414187115027e+02
flow[sink_17,sink_8] 0
flow[sink_3,sink_23] 16.3541666666697
flow[sink_8,sink_20] -1.6354166666668334e+01
flow[sink_25,sink_20] 7.4299749734494185e+01
flow[sink_25,sink_15] -7.9162671570764786e+01
flow[sink_15,sink_29] -5.4335944596927469e+01
flow[sink_29,sink_28] 1.6354166666667879e+01
flow[sink_29,sink_2] 5.7535060307170653e+01
flow[sink_2,sink_15] 4.1180893640503989e+01
flow[sink_29,innode_7] -1.4457933823743267e+02
flow[innode_4,sink_19] 0
flow[sink_19,innode_3] 3.5195136430124663e+01
flow[innode_4,innode_5] 1.0483013836632209e+02
flow[sink_27,innode_5] -1.0483013836632209e+02
flow[sink_27,sink_19] 8.8475971699655418e+01
flow[sink_10,sink_11] 3.2708333333333641e+01
flow[sink_10,innode_2] -3.6926668602863579e+01
flow[sink_10,innode_3] -3.5195136430124663e+01
flow[innode_6,sink_25] -9.6490283003454
flow[sink_11,innode_1] 1.6354166666666970e+01
flow[sink_19,innode_2] 3.6926668602863579e+01
flow[source_3,innode_4] 1.0483013836632209e+02
flow[source_2,innode_7] 1.4457933823743267e+02
flow[sink_3,innode_8] 1.3676133193406585e+02
pressure[innode_1] 7.6068205822220150e+01
pressure[innode_2] 78.1716340776213
pressure[innode_3] 7.8093698433413650e+01
pressure[innode_4] 81.01325
pressure[innode_5] 8.0941142303121325e+01
pressure[innode_6] 7.5170428444653638e+01
pressure[innode_7] 81.01325
pressure[innode_8] 8.0446777648769768e+01
pressure[source_1] 81.01325
pressure[source_2] 81.01325
pressure[source_3] 81.01325
pressure[sink_1] 1.0132500000000002e+00
pressure[sink_2] 7.5688891081220973e+01
pressure[sink_3] 8.0446777648769768e+01
pressure[sink_4] 5.4406255593177278e+01
pressure[sink_5] 4.1591726408319175e+01
pressure[sink_6] 2.4077252766766954e+00
pressure[sink_7] 3.4145674817242062e+00
pressure[sink_8] 5.6317939866309615e+01
pressure[sink_9] 1.01325
pressure[sink_10] 76.2199071298237
pressure[sink_11] 7.6068205822220150e+01
pressure[sink_12] 1.01325
pressure[sink_13] 7.5117234964136244e+01
pressure[sink_14] 7.5129234380394280e+01
pressure[sink_15] 75.5544445396075
pressure[sink_16] 7.5046555987402471e+01
pressure[sink_17] 4.9648117830579395e+01
pressure[sink_18] 1.5643266867997192e+00
pressure[sink_19] 78.1716340776213
pressure[sink_20] 57.4575952898979
pressure[sink_21] 1.01325
pressure[sink_22] 1.6020124091751939e+00
pressure[sink_23] 8.0282059637109981e+01
pressure[sink_24] 1.01325
pressure[sink_25] 7.5170428444653638e+01
pressure[sink_26] 6.7027305173617876e+01
pressure[sink_27] 8.0071245859948590e+01
pressure[sink_28] 7.6851036817438327e+01
pressure[sink_29] 77.1463190910555
interdiction[source_1,sink_3] 0
interdiction[innode_1,sink_16] 0
interdiction[innode_6,sink_13] 0
interdiction[sink_13,sink_14] 0
interdiction[sink_14,sink_10] 0
interdiction[sink_25,sink_26] 0
interdiction[sink_26,sink_9] 1
interdiction[sink_9,sink_18] 0
interdiction[sink_26,sink_4] 0
interdiction[sink_4,sink_20] 0
interdiction[sink_18,sink_6] 0
interdiction[sink_25,innode_8] 0
interdiction[sink_6,sink_7] 0
interdiction[sink_6,sink_22] 0
interdiction[sink_7,sink_24] 0
interdiction[sink_22,sink_1] 0
interdiction[sink_24,sink_21] 0
interdiction[sink_21,sink_12] 0
interdiction[sink_7,sink_5] 0
interdiction[sink_5,sink_17] 0
interdiction[sink_17,sink_4] 0
interdiction[sink_17,sink_8] 1
interdiction[sink_3,sink_23] 0
interdiction[sink_8,sink_20] 0
interdiction[sink_25,sink_20] 0
interdiction[sink_25,sink_15] 0
interdiction[sink_15,sink_29] 0
interdiction[sink_29,sink_28] 0
interdiction[sink_29,sink_2] 0
interdiction[sink_2,sink_15] 0
interdiction[sink_29,innode_7] 0
interdiction[innode_4,sink_19] 1
interdiction[sink_19,innode_3] 0
interdiction[innode_4,innode_5] 0
interdiction[sink_27,innode_5] 0
interdiction[sink_27,sink_19] 0
interdiction[sink_10,sink_11] 0
interdiction[sink_10,innode_2] 0
interdiction[sink_10,innode_3] 0
interdiction[innode_6,sink_25] 0
interdiction[sink_11,innode_1] 0
interdiction[sink_19,innode_2] 0
interdiction[source_3,innode_4] 0
interdiction[source_2,innode_7] 0
interdiction[sink_3,innode_8] 0
WCcheckFlow[source_1,sink_3] 39
WCcheckFlow[innode_1,sink_16] 1
WCcheckFlow[innode_6,sink_13] 13
WCcheckFlow[sink_13,sink_14] 12
WCcheckFlow[sink_14,sink_10] 11
WCcheckFlow[sink_25,sink_26] 15
WCcheckFlow[sink_26,sink_9] 0
WCcheckFlow[sink_9,sink_18] -1
WCcheckFlow[sink_26,sink_4] 14
WCcheckFlow[sink_4,sink_20] 2
WCcheckFlow[sink_18,sink_6] -2
WCcheckFlow[sink_25,innode_8] -36
WCcheckFlow[sink_6,sink_7] -5
WCcheckFlow[sink_6,sink_22] 2
WCcheckFlow[sink_7,sink_24] 3
WCcheckFlow[sink_22,sink_1] 1
WCcheckFlow[sink_24,sink_21] 2
WCcheckFlow[sink_21,sink_12] 1
WCcheckFlow[sink_7,sink_5] -9
WCcheckFlow[sink_5,sink_17] -10
WCcheckFlow[sink_17,sink_4] -11
WCcheckFlow[sink_17,sink_8] 0
WCcheckFlow[sink_3,sink_23] 1
WCcheckFlow[sink_8,sink_20] -1
WCcheckFlow[sink_25,sink_20] 0
WCcheckFlow[sink_25,sink_15] 6
WCcheckFlow[sink_15,sink_29] 5
WCcheckFlow[sink_29,sink_28] 1
WCcheckFlow[sink_29,sink_2] 1
WCcheckFlow[sink_2,sink_15] 0
WCcheckFlow[sink_29,innode_7] 2
WCcheckFlow[innode_4,sink_19] 0
WCcheckFlow[sink_19,innode_3] -5
WCcheckFlow[innode_4,innode_5] -2
WCcheckFlow[sink_27,innode_5] 3
WCcheckFlow[sink_27,sink_19] -4
WCcheckFlow[sink_10,sink_11] 3
WCcheckFlow[sink_10,innode_2] 1
WCcheckFlow[sink_10,innode_3] 6
WCcheckFlow[innode_6,sink_25] -14
WCcheckFlow[sink_11,innode_1] 2
WCcheckFlow[sink_19,innode_2] 0
WCcheckFlow[source_3,innode_4] -1
WCcheckFlow[source_2,innode_7] -1
WCcheckFlow[sink_3,innode_8] 37
